26
1 0 3
2 0 3
2 1 2
3 0 8
3 1 6
3 2 2
4 0 5
4 1 2
4 2 1
4 3 8
5 0 4
5 1 3
5 2 2
5 3 1
5 4 7
6 0 7
6 1 1
6 2 3
6 3 3
6 4 5
6 5 1
7 0 3
7 1 8
7 2 3
7 3 1
7 4 4
7 5 4
7 6 7
8 0 2
8 1 4
8 2 2
8 3 2
8 4 4
8 5 6
8 6 8
8 7 3
9 0 1
9 1 8
9 2 1
9 3 5
9 4 3
9 5 5
9 6 8
9 7 1
9 8 5
10 0 7
10 1 1
10 2 3
10 3 2
10 4 3
10 5 4
10 6 8
10 7 2
10 8 5
10 9 3
11 0 7
11 1 4
11 2 4
11 3 2
11 4 4
11 5 6
11 6 4
11 7 3
11 8 4
11 9 4
11 10 5
12 0 2
12 1 2
12 2 5
12 3 2
12 4 4
12 5 4
12 6 3
12 7 3
12 8 3
12 9 7
12 10 7
12 11 6
13 0 2
13 1 5
13 2 5
13 3 1
13 4 3
13 5 7
13 6 1
13 7 8
13 8 7
13 9 2
13 10 5
13 11 7
13 12 3
14 0 7
14 1 4
14 2 2
14 3 3
14 4 7
14 5 2
14 6 5
14 7 5
14 8 8
14 9 4
14 10 6
14 11 2
14 12 5
14 13 8
15 0 6
15 1 3
15 2 6
15 3 8
15 4 2
15 5 6
15 6 3
15 7 5
15 8 2
15 9 4
15 10 1
15 11 1
15 12 5
15 13 7
15 14 6
16 0 3
16 1 5
16 2 1
16 3 8
16 4 5
16 5 6
16 6 3
16 7 2
16 8 8
16 9 3
16 10 4
16 11 4
16 12 2
16 13 2
16 14 8
16 15 3
17 0 3
17 1 2
17 2 7
17 3 8
17 4 8
17 5 4
17 6 2
17 7 6
17 8 3
17 9 7
17 10 1
17 11 3
17 12 7
17 13 3
17 14 5
17 15 6
17 16 7
18 0 6
18 1 2
18 2 4
18 3 7
18 4 1
18 5 8
18 6 5
18 7 4
18 8 3
18 9 3
18 10 4
18 11 2
18 12 5
18 13 6
18 14 3
18 15 3
18 16 3
18 17 7
19 0 5
19 1 7
19 2 3
19 3 1
19 4 1
19 5 8
19 6 4
19 7 3
19 8 1
19 9 4
19 10 5
19 11 6
19 12 6
19 13 7
19 14 2
19 15 1
19 16 4
19 17 4
19 18 7
20 0 8
20 1 5
20 2 4
20 3 5
20 4 2
20 5 6
20 6 6
20 7 3
20 8 8
20 9 5
20 10 4
20 11 7
20 12 2
20 13 4
20 14 1
20 15 5
20 16 1
20 17 3
20 18 8
20 19 7
21 0 8
21 1 3
21 2 2
21 3 3
21 4 4
21 5 1
21 6 3
21 7 6
21 8 2
21 9 3
21 10 5
21 11 1
21 12 1
21 13 4
21 14 7
21 15 2
21 16 6
21 17 3
21 18 4
21 19 4
21 20 5
22 0 6
22 1 4
22 2 1
22 3 3
22 4 5
22 5 1
22 6 2
22 7 5
22 8 6
22 9 4
22 10 6
22 11 1
22 12 1
22 13 2
22 14 2
22 15 5
22 16 4
22 17 8
22 18 5
22 19 4
22 20 5
22 21 1
23 0 1
23 1 7
23 2 6
23 3 7
23 4 6
23 5 3
23 6 8
23 7 4
23 8 7
23 9 8
23 10 1
23 11 3
23 12 5
23 13 3
23 14 3
23 15 8
23 16 2
23 17 8
23 18 2
23 19 2
23 20 2
23 21 6
23 22 5
24 0 3
24 1 3
24 2 3
24 3 8
24 4 8
24 5 3
24 6 8
24 7 4
24 8 7
24 9 8
24 10 2
24 11 1
24 12 7
24 13 2
24 14 2
24 15 5
24 16 6
24 17 1
24 18 6
24 19 3
24 20 1
24 21 7
24 22 2
24 23 3
25 0 4
25 1 5
25 2 5
25 3 6
25 4 2
25 5 4
25 6 8
25 7 8
25 8 7
25 9 7
25 10 7
25 11 6
25 12 8
25 13 5
25 14 8
25 15 1
25 16 7
25 17 5
25 18 6
25 19 3
25 20 4
25 21 6
25 22 5
25 23 6
25 24 4
